8
0 526 681 656 20 140 363 608 
526 0 828 452 285 8 850 186 
681 828 0 465 220 127 948 731 
656 452 465 0 502 42 479 601 
20 285 220 502 0 940 331 544 
140 8 127 42 940 0 933 50 
363 850 948 479 331 933 0 730 
608 186 731 601 544 50 730 0 
